40235 39472 
40384 39344 
39738 39894 
39394 40175 
38925 40522 
39065 40467 
38221 40979 
38788 40607 
38567 40827 
39824 39845 
39595 39978 
38248 40963 
39092 40451 
38870 40537 
37999 41087 
37465 41371 
37492 41355 
36897 41631 
36924 41615 
